\ SCIP STATISTICS
\   Problem name     : SetCover-10-10
\   Variables        : 10 (10 binary, 0 integer, 0 implicit integer, 0 continuous)
\   Constraints      : 10
Minimize
 Obj: +56 x0 +69 x1 +53 x2 +74 x3 +56 x4 +9 x5 +47 x6 +72 x7 +99 x8 +83 x9
Subject to
 c0: +1 x3 +1 x4 +1 x7 +1 x9 >= +1
 c1: +1 x0 +1 x5 +1 x6 >= +1
 c2: +1 x0 +1 x4 >= +1
 c3: +1 x1 +1 x3 +1 x9 >= +1
 c4: +1 x0 +1 x6 +1 x8 >= +1
 c5: +1 x1 +1 x4 +1 x6 +1 x8 +1 x9 >= +1
 c6: +1 x2 +1 x7 >= +1
 c7: +1 x2 +1 x7 >= +1
 c8: +1 x2 +1 x4 +1 x5 >= +1
 c9: +1 x3 +1 x5 +1 x6 >= +1
Bounds
 0 <= x0 <= 1
 0 <= x1 <= 1
 0 <= x2 <= 1
 0 <= x3 <= 1
 0 <= x4 <= 1
 0 <= x5 <= 1
 0 <= x6 <= 1
 0 <= x7 <= 1
 0 <= x8 <= 1
 0 <= x9 <= 1
Binaries
 x0 x1 x2 x3 x4 x5 x6 x7 x8 x9
End
